1685
6 27 76 61 81 14 52 43 48 96 90 49 36 50 3 94 30 12 1 13 62 74 20 87 46 37 53 10 45 42 86 72 5 91 88 57 67 98 55 58 56 82 92 31 47 83 97 54 7 64 35 24 66 65 99 17 80 77 23 18 9 4 2 75 40 41 60 11 19 69 85 89 21 84 16 32 68 15 63 71 79 22 34 25 73 26 28 44 95 33 38 93 39 29 59 8 78 51 70 
